
List of user-set options:

                                    Name   Value                used
                           compl_inf_tol = 1                     yes
                         constr_viol_tol = 1                     yes
                            dual_inf_tol = 1000                  yes
                           linear_solver = ma97                  yes
                              ma86_small = 1e-30                  no
                                  ma86_u = 0.0001                 no
                              ma97_order = best                  yes
                              ma97_small = 1e-30                 yes
                            ma97_switch1 = at_start              yes
                            ma97_switch2 = od_hd_reuse           yes
                                  ma97_u = 1e-06                 yes
                               ma97_umax = 0.5                   yes
                                max_iter = 1000                  yes
                    max_refinement_steps = 20                    yes
                    min_refinement_steps = 5                     yes
                                 mu_init = 1e-06                 yes
           mu_superlinear_decrease_power = 1.25                  yes
                   nlp_scaling_min_value = 1e-08                 yes
                        option_file_name = Preset_Case_880_pf.opt  yes
                             output_file = ./tmp/Preset_Case_880_pf.output  yes
                      print_user_options = yes                   yes
        required_infeasibility_reduction = 1                      no
                                     tol = 1e-08                 yes
                   warm_start_bound_frac = 1e-20                 yes
                   warm_start_bound_push = 1e-20                 yes
                   warm_start_init_point = yes                   yes
              warm_start_mult_bound_push = 1e-20                 yes
                warm_start_mult_init_max = 1e+40                 yes
             warm_start_slack_bound_frac = 1e-20                 yes
             warm_start_slack_bound_push = 1e-20                 yes

******************************************************************************
This program contains Ipopt, a library for large-scale nonlinear optimization.
 Ipopt is released as open source code under the Eclipse Public License (EPL).
         For more information visit http://projects.coin-or.org/Ipopt
******************************************************************************

This is Ipopt version 3.12.10, running with linear solver ma97.

Number of nonzeros in equality constraint Jacobian...:   123442
Number of nonzeros in inequality constraint Jacobian.:      213
Number of nonzeros in Lagrangian Hessian.............:    49069

Total number of variables............................:    31591
                     variables with only lower bounds:    12912
                variables with lower and upper bounds:    15130
                     variables with only upper bounds:        0
Total number of equality constraints.................:    31483
Total number of inequality constraints...............:       25
        inequality constraints with only lower bounds:        4
   inequality constraints with lower and upper bounds:        0
        inequality constraints with only upper bounds:       21

iter    objective    inf_pr   inf_du lg(mu)  ||d||  lg(rg) alpha_du alpha_pr  ls
   0 -5.2132100e+00 4.06e-03 1.02e+00  -6.0 0.00e+00    -  0.00e+00 0.00e+00   0
   1 -5.2124707e+00 1.06e-01 1.02e+00  -6.0 3.76e+05    -  1.10e-04 9.40e-05h  5
   2 -5.2141391e+00 1.06e-01 2.98e+01  -6.0 6.49e+03    -  1.32e-01 1.96e-03h  1
   3 -5.2428756e+00 4.43e+01 3.23e+01  -6.0 1.26e+05    -  3.11e-03 1.30e-02f  1
   4 -5.2641073e+00 4.40e+01 6.40e+01  -6.0 1.23e+04    -  1.83e-01 2.53e-02h  1
   5 -5.3017751e+00 4.23e+01 6.24e+01  -6.0 6.06e+03    -  2.47e-02 4.72e-02h  1
   6 -5.3283899e+00 4.11e+01 1.19e+02  -6.0 5.52e+03    -  3.48e-01 3.61e-02h  1
   7 -5.4648333e+00 3.49e+01 4.54e+02  -6.0 5.16e+03    -  1.68e-01 1.96e-01h  1
   8 -5.4621370e+00 2.92e+01 3.73e+02  -6.0 5.30e+00  -4.0 3.11e-03 1.66e-01h  1
   9 -5.4579365e+00 1.61e-02 1.03e+02  -6.0 1.19e+01  -4.5 1.77e-01 1.00e+00h  1
iter    objective    inf_pr   inf_du lg(mu)  ||d||  lg(rg) alpha_du alpha_pr  ls
  10 -5.4750304e+00 1.63e-02 9.72e+01  -6.0 2.96e+01  -5.0 2.53e-01 7.30e-01h  1
  11 -5.5460902e+00 4.10e+00 1.01e+02  -6.0 7.84e+01  -5.4 8.32e-02 1.00e+00h  1
  12 -5.8476853e+00 1.41e+01 2.95e+03  -6.0 8.55e+01  -5.9 4.47e-01 8.87e-01h  1
  13 -5.7410641e+00 7.84e+00 1.74e+02  -6.0 1.05e+02  -6.4 2.58e-01 1.00e+00h  1
  14 -5.7489329e+00 7.83e+00 1.74e+02  -6.0 1.70e+04    -  3.18e-02 1.03e-03h  1
  15 -5.7282370e+00 7.17e+00 1.59e+02  -6.0 2.81e+02  -6.9 8.97e-02 9.24e-02h  1
  16 -5.7559558e+00 9.00e+00 2.10e+02  -6.0 6.97e+03    -  8.41e-03 9.79e-02f  1
  17 -5.7987324e+00 5.34e+00 8.52e+01  -6.0 2.36e+02  -7.3 1.00e+00 9.48e-01h  1
  18 -5.7990944e+00 5.27e+00 1.77e+02  -6.0 1.72e+03  -7.8 9.28e-02 1.43e-02h  1
  19 -5.7955393e+00 2.92e+00 2.86e+03  -6.0 8.40e+02  -8.3 1.64e-01 4.50e-01h  1
iter    objective    inf_pr   inf_du lg(mu)  ||d||  lg(rg) alpha_du alpha_pr  ls
  20 -5.7962300e+00 2.76e+00 9.19e+03  -6.0 6.88e+02  -7.9 4.55e-01 5.30e-02h  1
  21 -5.7929722e+00 1.19e+00 6.03e+03  -6.0 2.28e+02  -7.4 1.00e+00 5.71e-01h  1
  22 -5.7933945e+00 1.13e+00 4.04e+03  -6.0 4.29e+02  -7.9 5.33e-03 4.95e-02h  1
  23 -5.7963541e+00 3.69e+00 1.85e+03  -6.0 9.30e+03  -8.4 7.55e-03 4.62e-02f  3
  24 -5.7992130e+00 3.48e+00 8.55e+03  -6.0 3.54e+03    -  1.87e-01 6.19e-02h  1
  25 -5.8051988e+00 3.97e+00 1.13e+04  -6.0 3.22e+03    -  2.29e-01 1.51e-01h  1
  26 -5.8100121e+00 5.52e+00 9.60e+03  -6.0 2.59e+03    -  1.63e-01 1.61e-01h  1
  27 -5.8122771e+00 5.46e+00 7.91e+04  -6.0 2.23e+03    -  9.67e-01 9.08e-02h  1
  28 -5.8241499e+00 6.96e+00 2.69e+04  -6.0 2.09e+03    -  1.56e-01 5.16e-01H  1
  29 -5.8281149e+00 5.97e+00 2.05e+04  -6.0 1.43e+03    -  2.29e-03 2.30e-01h  1
iter    objective    inf_pr   inf_du lg(mu)  ||d||  lg(rg) alpha_du alpha_pr  ls
  30 -5.8369542e+00 4.65e+00 1.25e+05  -6.0 1.11e+03    -  1.26e-01 5.07e-01h  1
  31 -5.8421275e+00 6.72e+00 2.14e+05  -6.0 1.57e+03    -  9.69e-02 2.79e-01h  1
  32 -5.8492543e+00 4.49e+00 1.04e+05  -6.0 5.76e+02    -  5.77e-01 3.49e-01h  1
  33 -5.8645776e+00 1.74e+00 2.61e+05  -6.0 4.35e+02    -  4.21e-01 6.25e-01h  1
  34r-5.8645776e+00 1.74e+00 1.00e+03   0.1 0.00e+00    -  0.00e+00 3.29e-07R  2
  35r-5.8770199e+00 1.73e+00 1.00e+03   0.1 9.67e+03    -  5.04e-06 1.56e-06f  1
  36 -5.8766483e+00 1.69e+00 3.03e+05  -6.0 9.32e+00    -  2.13e-01 2.52e-02h  1
  37 -5.8702409e+00 1.26e+00 3.34e+06  -6.0 8.27e+00    -  2.52e-02 2.54e-01h  1
  38 -5.8673494e+00 7.26e-01 1.93e+06  -6.0 7.46e+00    -  6.55e-01 4.24e-01h  1
  39 -5.8681068e+00 7.04e-01 1.87e+06  -6.0 8.60e+00    -  7.31e-01 3.04e-02h  1
iter    objective    inf_pr   inf_du lg(mu)  ||d||  lg(rg) alpha_du alpha_pr  ls
  40 -5.8621857e+00 7.33e-04 1.31e+02  -6.0 3.75e+00    -  1.45e-01 1.00e+00h  1
  41 -5.8622725e+00 3.78e-04 7.21e+01  -6.0 1.60e+00    -  9.78e-01 4.84e-01h  1
  42 -5.8658163e+00 8.00e-02 7.91e+00  -6.0 4.98e+01    -  9.03e-01 1.00e+00f  1
  43 -5.8740209e+00 7.65e-01 2.69e+00  -6.0 1.54e+02    -  9.41e-01 1.00e+00h  1
  44 -5.8722373e+00 1.09e-01 7.96e+00  -6.0 1.07e+02    -  6.86e-01 1.00e+00h  1
  45 -5.8715373e+00 2.52e-01 2.17e-01  -6.0 4.05e+01  -8.0 9.90e-01 1.00e+00h  1
  46 -5.8714571e+00 1.91e-02 4.52e-01  -6.0 1.08e+02  -8.4 1.00e+00 1.00e+00H  1
  47 -5.8714871e+00 1.46e-01 1.17e+01  -6.0 1.10e+03    -  5.06e-01 7.59e-02h  3
  48 -5.8715172e+00 3.19e-01 2.44e+01  -6.0 1.04e+03    -  1.00e+00 9.73e-02h  2
  49 -5.8715817e+00 4.25e-02 3.73e+00  -6.0 6.72e+02    -  1.00e+00 1.00e+00H  1
iter    objective    inf_pr   inf_du lg(mu)  ||d||  lg(rg) alpha_du alpha_pr  ls
  50 -5.8715864e+00 1.33e-02 4.36e-02  -6.0 2.75e+01    -  1.00e+00 1.00e+00h  1
  51 -5.8715819e+00 5.21e-05 9.43e-04  -6.0 1.84e+00    -  1.00e+00 1.00e+00h  1
  52 -5.8715819e+00 5.29e-06 2.40e-05  -6.0 5.50e-01    -  1.00e+00 1.00e+00h  1
  53 -5.8715819e+00 1.16e-08 4.20e-08  -6.0 2.75e-02    -  1.00e+00 1.00e+00h  1
  54 -5.8717233e+00 3.35e+00 9.99e+01  -7.5 5.96e+02    -  4.44e-01 7.86e-01h  1
  55 -5.8717098e+00 7.97e-01 6.23e+00  -7.5 1.32e+02    -  9.58e-01 8.20e-01h  1
  56 -5.8717037e+00 1.25e-02 7.26e-02  -7.5 2.75e+01    -  1.00e+00 1.00e+00h  1
  57 -5.8717036e+00 3.12e-05 1.78e-05  -7.5 1.42e+00    -  1.00e+00 1.00e+00h  1
  58 -5.8717036e+00 1.07e-07 8.33e-08  -7.5 8.25e-02    -  1.00e+00 1.00e+00h  1
  59 -5.8717051e+00 3.11e-03 9.13e-01  -9.0 1.70e+01    -  9.25e-01 8.26e-01h  1
iter    objective    inf_pr   inf_du lg(mu)  ||d||  lg(rg) alpha_du alpha_pr  ls
  60 -5.8717054e+00 7.46e-05 1.12e-01  -9.0 2.05e+00    -  9.76e-01 1.00e+00h  1
  61 -5.8717054e+00 7.61e-06 5.87e-06  -9.0 6.95e-01    -  1.00e+00 1.00e+00h  1
  62 -5.8717054e+00 5.20e-07 4.03e-07  -9.0 1.82e-01    -  1.00e+00 1.00e+00h  1
  63 -5.8717054e+00 2.88e-09 2.23e-09  -9.0 1.35e-02    -  1.00e+00 1.00e+00h  1

Number of Iterations....: 63

                                   (scaled)                 (unscaled)
Objective...............:  -4.5872698210187197e+00   -5.8717053709039613e+00
Dual infeasibility......:   2.2300356950768333e-09    2.8544456896983469e-09
Constraint violation....:   1.8287233533363959e-09    2.8776412364095449e-09
Complementarity.........:   9.0933851925440980e-10    1.1639533046456445e-09
Overall NLP error.......:   2.2300356950768333e-09    2.8776412364095449e-09


Number of objective function evaluations             = 85
Number of objective gradient evaluations             = 64
Number of equality constraint evaluations            = 85
Number of inequality constraint evaluations          = 85
Number of equality constraint Jacobian evaluations   = 65
Number of inequality constraint Jacobian evaluations = 65
Number of Lagrangian Hessian evaluations             = 63
Total CPU secs in IPOPT (w/o function evaluations)   =    112.948
Total CPU secs in NLP function evaluations           =      2.374

EXIT: Optimal Solution Found.
